13
0 377 534 780 529 508 256 467 803 601 383 615 327
377 0 254 420 335 303 602 94 429 284 164 532 697
534 254 0 287 570 99 690 265 447 79 150 338 806
780 420 287 0 615 375 967 358 256 207 413 570 1077
529 335 570 615 0 635 785 306 462 572 499 867 841
508 303 99 375 635 0 632 338 547 171 152 245 752
256 602 690 967 785 632 0 697 1032 767 553 642 123
467 94 265 358 306 338 697 0 336 267 227 580 790
803 429 447 256 462 547 1032 336 0 385 513 779 1126
601 284 79 207 572 171 767 267 385 0 219 394 882
383 164 150 413 499 152 553 227 513 219 0 368 665
615 532 338 570 867 245 642 580 779 394 368 0 765
327 697 806 1077 841 752 123 790 1126 882 665 765 0
